ISMEAR = -1
SIGMA = 0.10
ALGO = Exact
LOPTICS = .FALSE.
EDIFF = 1E-8
ENCUT = 310
PREC = Normal
LMAXFOCKAE = 4
NELM = 1
NBANDS = XXX
ISYM = 0
