ISMEAR = -1
SIGMA = 0.10
ALGO = EIGENVAL
NELM = 1
EDIFF = 1E-8
ENCUT = 310
PREC = Normal
PRECFOCK = Normal
LMAXFOCKAE = 4
LWAVE = .FALSE.
LHFCALC = .TRUE.
AEXX = 1.0 
LOPTICS = .FALSE.
NCORE = 8
KPAR = 2
ISYM = 0
