ISMEAR = -1
SIGMA = 0.10
ALGO = ACFDTR
LOPTICS = .FALSE.
EDIFF = 1E-8
ENCUT = 310
PREC = Normal
PRECFOCK = Fast
LMAXFOCKAE = 4
NBANDS = XXX
LFINITE_TEMPERATURE = .TRUE.
ISYM = 0
