ISMEAR = -1
SIGMA = 0.10
EDIFF = 1E-8
ENCUT = 310
NELM = 2000
PREC = Normal
LMAXFOCKAE = 4
NCORE = 8
LOPTICS=.FALSE.
KPAR = 2
ALGO = All
ISYM = 0
