C  O 
 1.0000000000000000
     5.6471726884579523    0.0000000000000000    0.0000000000000000
     2.8235863442289761    4.8905950077622506    0.0000000000000000
     0.0000000000000000    0.0000000000000000   21.9163457880515296
 C   O  
   1   1
Direct
  0.4999999999674878  0.5000000000805281  0.4739586898411286
  0.5000000000325121  0.4999999999194720  0.5260413101588715
